
Gurobi 11.0.1 (win64) logging started Sun Mar 17 01:19:30 2024

Set parameter LogFile to value "res/logfile/h80x6320dlog.txt"
Gurobi Optimizer version 11.0.1 build v11.0.1rc0 (win64 - Windows 11.0 (22621.2))

CPU model: AMD Ryzen Threadripper PRO 5975WX 32-Cores, instruction set [SSE2|AVX|AVX2]
Thread count: 32 physical cores, 64 logical processors, using up to 10 threads

Optimize a model with 6547 rows, 12640 columns and 36882 nonzeros
Model fingerprint: 0x6c7c8d7b
Variable types: 6320 continuous, 6320 integer (6320 binary)
Coefficient statistics:
  Matrix range     [1e+00, 4e+02]
  Objective range  [1e+00, 6e+02]
  Bounds range     [1e+00, 4e+02]
  RHS range        [1e+00, 4e+02]
Presolve removed 215 rows and 226 columns
Presolve time: 0.06s
Presolved: 6332 rows, 12414 columns, 31069 nonzeros
Variable types: 6241 continuous, 6173 integer (6173 binary)
Found heuristic solution: objective 28067.716475
Found heuristic solution: objective 15647.929787
Found heuristic solution: objective 11858.493986

Root relaxation: objective 5.325160e+03, 229 iterations, 0.02 seconds (0.01 work units)

    Nodes    |    Current Node    |     Objective Bounds      |     Work
 Expl Unexpl |  Obj  Depth IntInf | Incumbent    BestBd   Gap | It/Node Time

     0     0 5325.16010    0   85 11858.4940 5325.16010  55.1%     -    0s
H    0     0                    8236.3238488 5325.16010  35.3%     -    0s
H    0     0                    8164.3726460 5325.16010  34.8%     -    0s
     0     0 5649.97421    0   84 8164.37265 5649.97421  30.8%     -    0s
H    0     0                    7623.3629630 5659.71993  25.8%     -    0s
H    0     0                    6705.2335590 5659.71993  15.6%     -    0s
H    0     0                    6468.0937610 5693.51502  12.0%     -    0s
H    0     0                    6462.5414460 5693.51502  11.9%     -    0s
     0     0 5693.51502    0  103 6462.54145 5693.51502  11.9%     -    0s
     0     0 5704.51858    0  102 6462.54145 5704.51858  11.7%     -    0s
     0     0 5704.61908    0  104 6462.54145 5704.61908  11.7%     -    0s
H    0     0                    6399.8620140 5704.61908  10.9%     -    1s
     0     0 5882.01290    0   90 6399.86201 5882.01290  8.09%     -    1s
H    0     0                    6394.3096990 5901.99618  7.70%     -    1s
     0     0 5972.48083    0   98 6394.30970 5972.48083  6.60%     -    1s
     0     0 5981.72711    0  100 6394.30970 5981.72711  6.45%     -    1s
     0     0 5984.71333    0  101 6394.30970 5984.71333  6.41%     -    1s
     0     0 5984.95006    0  101 6394.30970 5984.95006  6.40%     -    1s
     0     0 6108.87698    0  105 6394.30970 6108.87698  4.46%     -    1s
     0     0 6146.21574    0   96 6394.30970 6146.21574  3.88%     -    1s
     0     0 6158.26849    0   89 6394.30970 6158.26849  3.69%     -    1s
     0     0 6160.68766    0  103 6394.30970 6160.68766  3.65%     -    1s
     0     0 6208.72559    0  113 6394.30970 6208.72559  2.90%     -    2s
     0     0 6208.72559    0   85 6394.30970 6208.72559  2.90%     -    2s
     0     0 6208.72559    0   78 6394.30970 6208.72559  2.90%     -    2s
H    0     0                    6388.3096990 6208.72559  2.81%     -    2s
     0     0 6208.72559    0   87 6388.30970 6208.72559  2.81%     -    2s
     0     0 6208.72559    0   98 6388.30970 6208.72559  2.81%     -    2s
     0     0 6210.96016    0  107 6388.30970 6210.96016  2.78%     -    2s
     0     0 6211.09940    0  107 6388.30970 6211.09940  2.77%     -    2s
     0     0 6240.08561    0  107 6388.30970 6240.08561  2.32%     -    3s
     0     0 6245.41904    0  104 6388.30970 6245.41904  2.24%     -    3s
     0     0 6246.40179    0  101 6388.30970 6246.40179  2.22%     -    3s
     0     0 6276.65411    0   88 6388.30970 6276.65411  1.75%     -    3s
     0     0 6276.65411    0   85 6388.30970 6276.65411  1.75%     -    3s
     0     0 6276.65411    0  115 6388.30970 6276.65411  1.75%     -    3s
     0     0 6276.65411    0  103 6388.30970 6276.65411  1.75%     -    3s
     0     0 6276.65411    0   87 6388.30970 6276.65411  1.75%     -    3s
     0     0 6276.65411    0   70 6388.30970 6276.65411  1.75%     -    3s
     0     0 6276.65411    0   87 6388.30970 6276.65411  1.75%     -    3s
     0     0 6277.22595    0   72 6388.30970 6277.22595  1.74%     -    3s
     0     0 6287.60147    0  106 6388.30970 6287.60147  1.58%     -    3s
     0     0 6290.11786    0  103 6388.30970 6290.11786  1.54%     -    3s
     0     0 6290.60823    0  109 6388.30970 6290.60823  1.53%     -    3s
     0     0 6303.02853    0  114 6388.30970 6303.02853  1.33%     -    4s
     0     0 6303.02853    0   85 6388.30970 6303.02853  1.33%     -    4s
     0     0 6303.02853    0  108 6388.30970 6303.02853  1.33%     -    4s
     0     0 6303.02853    0   84 6388.30970 6303.02853  1.33%     -    4s
     0     0 6303.02853    0   91 6388.30970 6303.02853  1.33%     -    4s
     0     0 6303.02853    0   89 6388.30970 6303.02853  1.33%     -    4s
     0     0 6303.02853    0  112 6388.30970 6303.02853  1.33%     -    4s
     0     0 6303.02853    0   87 6388.30970 6303.02853  1.33%     -    4s
     0     0 6303.89498    0  101 6388.30970 6303.89498  1.32%     -    4s
     0     0 6304.01320    0  100 6388.30970 6304.01320  1.32%     -    4s
     0     0 6308.92674    0  123 6388.30970 6308.92674  1.24%     -    4s
     0     0 6310.06867    0  109 6388.30970 6310.06867  1.22%     -    4s
     0     0 6320.32401    0  102 6388.30970 6320.32401  1.06%     -    4s
H    0     0                    6382.0990500 6320.34507  0.97%     -    5s
     0     0 6322.71276    0   87 6382.09905 6322.71276  0.93%     -    5s
     0     0 6323.69171    0  104 6382.09905 6323.69171  0.92%     -    5s
     0     0 6328.27227    0  119 6382.09905 6328.27227  0.84%     -    5s
     0     0 6328.27227    0   85 6382.09905 6328.27227  0.84%     -    5s
     0     0 6328.27227    0  119 6382.09905 6328.27227  0.84%     -    5s
     0     0 6328.27227    0   83 6382.09905 6328.27227  0.84%     -    5s
     0     0 6328.27227    0   80 6382.09905 6328.27227  0.84%     -    5s
     0     0 6328.27227    0   91 6382.09905 6328.27227  0.84%     -    5s
     0     0 6328.27227    0   82 6382.09905 6328.27227  0.84%     -    5s
     0     0 6328.27227    0   84 6382.09905 6328.27227  0.84%     -    5s
     0     0 6328.27227    0   93 6382.09905 6328.27227  0.84%     -    5s
     0     0 6328.58557    0   97 6382.09905 6328.58557  0.84%     -    6s
     0     0 6330.13431    0  114 6382.09905 6330.13431  0.81%     -    6s
     0     0 6330.95448    0  106 6382.09905 6330.95448  0.80%     -    6s
     0     0 6332.76568    0   81 6382.09905 6332.76568  0.77%     -    6s
     0     0 6334.17685    0   68 6382.09905 6334.17685  0.75%     -    6s
     0     0 6334.17685    0  105 6382.09905 6334.17685  0.75%     -    7s
     0     0 6334.17685    0  105 6382.09905 6334.17685  0.75%     -    7s
     0     0 6334.20629    0   85 6382.09905 6334.20629  0.75%     -    7s
     0     0 6334.20629    0  107 6382.09905 6334.20629  0.75%     -    7s
     0     0 6334.20629    0   78 6382.09905 6334.20629  0.75%     -    7s
     0     0 6334.20629    0   98 6382.09905 6334.20629  0.75%     -    7s
     0     0 6334.20629    0   78 6382.09905 6334.20629  0.75%     -    7s
     0     0 6334.20629    0   87 6382.09905 6334.20629  0.75%     -    7s
     0     0 6334.20629    0   47 6382.09905 6334.20629  0.75%     -    7s
     0     0 6334.20629    0  105 6382.09905 6334.20629  0.75%     -    7s
     0     0 6334.70147    0   61 6382.09905 6334.70147  0.74%     -    7s
     0     0 6335.62559    0   69 6382.09905 6335.62559  0.73%     -    7s
     0     0 6336.18298    0   80 6382.09905 6336.18298  0.72%     -    7s
     0     0 6336.49773    0   80 6382.09905 6336.49773  0.71%     -    7s
     0     2 6336.49773    0   80 6382.09905 6336.49773  0.71%     -    8s
  4223   621     cutoff   19      6382.09905 6361.69047  0.32%  20.4   10s

Cutting planes:
  Gomory: 22
  Lift-and-project: 12
  Cover: 31
  Implied bound: 130
  MIR: 114
  Flow cover: 176
  Flow path: 10
  Inf proof: 2
  Network: 10
  RLT: 7
  Relax-and-lift: 6

Explored 5959 nodes (128644 simplex iterations) in 10.36 seconds (6.09 work units)
Thread count was 10 (of 64 available processors)

Solution count 10: 6382.1 6388.31 6394.31 ... 8236.32

Optimal solution found (tolerance 1.00e-04)
Best objective 6.382099050000e+03, best bound 6.382099050000e+03, gap 0.0000%

User-callback calls 13047, time in user-callback 0.00 sec
